949
1539
1388
108
219
336
1837
321
1350
1895
121
572
1232
1379
1355
1639
344
1068
785
1104
653
543
226
400
1781
850
897
547
1492
814
696
1259
1342
1621
1336
306
1479
362
1095
1385
739
344
1679
638
1130
1229
1575
1806
806
174
